c description: Random 3-CNF over 13 variables and 52 clauses
p cnf 13 52
2 -10 13 0
5 7 12 0
-1 5 12 0
-2 -4 6 0
-4 -6 9 0
3 -4 -5 0
-3 -8 -11 0
-4 -6 7 0
4 6 -7 0
-2 3 -10 0
2 -3 4 0
5 6 7 0
-1 -7 12 0
2 5 9 0
-7 9 -13 0
-1 7 -11 0
5 7 -11 0
3 5 9 0
6 -10 -13 0
4 -8 12 0
-7 9 13 0
-3 6 9 0
6 8 11 0
-8 10 13 0
-1 4 -12 0
-1 6 -8 0
-1 6 8 0
9 -11 13 0
3 9 10 0
-1 5 9 0
-4 8 9 0
8 -9 -11 0
5 8 10 0
6 -9 -10 0
-1 2 12 0
-8 11 13 0
1 7 8 0
1 -8 11 0
-1 5 -12 0
-1 -7 9 0
5 8 12 0
-2 3 4 0
3 7 -12 0
-1 -2 -9 0
-6 8 13 0
4 7 -10 0
9 -10 11 0
-2 -8 11 0
4 11 13 0
3 5 12 0
1 -5 12 0
2 -3 -10 0